1338.72
0 115 114 106 107 108 109 120 0 
0 77 64 63 133 70 69 68 113 129 128 127 121 122 123 124 126 125 111 110 112 81 0 
0 118 19 65 130 119 116 131 117 132 18 17 71 0 
0 66 73 134 74 76 78 33 80 67 79 34 48 50 1 75 32 47 72 0 
0 104 101 98 99 36 35 45 43 40 42 2 10 4 5 6 7 8 9 11 12 13 15 14 88 3 95 41 39 44 37 38 96 97 0 
0 82 20 83 85 84 86 87 16 29 51 54 53 55 102 103 100 94 93 105 56 57 58 52 49 62 61 60 22 0 
0 46 91 21 25 26 89 27 90 28 92 30 31 59 23 24 0 
